p tw 30 138
e 0 1
e 0 4
e 0 9
e 0 10
e 0 14
e 0 17
e 0 20
e 0 21
e 0 25
e 0 27
e 0 28
e 1 3
e 1 4
e 1 5
e 1 7
e 1 8
e 1 12
e 1 15
e 1 29
e 2 3
e 2 6
e 2 17
e 2 18
e 2 23
e 2 29
e 3 8
e 3 11
e 3 20
e 3 23
e 4 7
e 4 8
e 4 9
e 4 15
e 4 18
e 4 19
e 4 20
e 4 22
e 4 23
e 4 26
e 4 27
e 4 29
e 5 6
e 5 11
e 5 14
e 5 15
e 5 18
e 5 21
e 5 22
e 5 23
e 5 25
e 5 29
e 6 10
e 6 16
e 6 17
e 6 26
e 6 27
e 6 29
e 7 11
e 7 18
e 7 21
e 7 22
e 7 24
e 7 29
e 8 9
e 8 14
e 8 23
e 8 25
e 8 26
e 8 28
e 9 14
e 9 19
e 9 21
e 9 22
e 9 23
e 10 13
e 10 14
e 10 15
e 10 20
e 10 23
e 10 25
e 10 26
e 10 28
e 10 29
e 11 14
e 11 15
e 11 16
e 11 18
e 11 23
e 11 24
e 11 26
e 11 28
e 11 29
e 12 14
e 12 18
e 12 22
e 12 23
e 12 29
e 13 16
e 13 17
e 13 18
e 14 20
e 14 21
e 14 22
e 14 23
e 14 25
e 14 26
e 14 28
e 15 18
e 15 21
e 15 23
e 15 28
e 16 18
e 16 20
e 16 22
e 17 18
e 17 20
e 17 23
e 17 24
e 18 22
e 18 23
e 18 27
e 18 29
e 19 20
e 19 21
e 19 26
e 19 27
e 20 25
e 20 28
e 21 25
e 21 27
e 21 28
e 22 24
e 24 27
e 24 28
e 24 29
e 25 28
e 27 28
e 28 29
